3648
4019
1554
3896
5229
1046
1618
6207
10047
7175
989
1353
9946
2166
7876
2084
8693
1045
3324
8203
8292
5733
8880
7781
7811
1914
6930
9726
1791
6439
9343
448
3452
2516
1113
9962
9194
7621
1692
3180
5146
7664
3645
6816
5382
8546
1646
8494
1443
3465
